(set-info :smt-lib-version 2.6)
(set-logic QF_UFLRA)
(set-info :source |
MathSat group

|)
(set-info :category "random")
(set-info :status unsat)
(declare-fun x0 () Real)
(declare-fun x1 () Real)
(declare-fun x2 () Real)
(declare-fun x3 () Real)
(declare-fun x4 () Real)
(declare-fun x5 () Real)
(declare-fun x6 () Real)
(declare-fun x7 () Real)
(declare-fun x8 () Real)
(declare-fun x9 () Real)
(declare-fun x10 () Real)
(declare-fun x11 () Real)
(declare-fun x12 () Real)
(declare-fun x13 () Real)
(declare-fun x14 () Real)
(declare-fun x15 () Real)
(declare-fun x16 () Real)
(declare-fun x17 () Real)
(declare-fun x18 () Real)
(declare-fun x19 () Real)
(declare-fun x20 () Real)
(declare-fun x21 () Real)
(declare-fun x22 () Real)
(declare-fun x23 () Real)
(declare-fun x24 () Real)
(declare-fun x25 () Real)
(declare-fun x26 () Real)
(declare-fun x27 () Real)
(declare-fun x28 () Real)
(declare-fun x29 () Real)
(declare-fun f0_1 (Real) Real)
(declare-fun f0_2 (Real Real) Real)
(declare-fun f0_3 (Real Real Real) Real)
(declare-fun f0_4 (Real Real Real Real) Real)
(declare-fun P0 () Bool)
(declare-fun P1 () Bool)
(declare-fun P2 () Bool)
(declare-fun P3 () Bool)
(declare-fun P4 () Bool)
(declare-fun P5 () Bool)
(declare-fun P6 () Bool)
(declare-fun P7 () Bool)
(declare-fun P8 () Bool)
(declare-fun P9 () Bool)
(declare-fun P10 () Bool)
(declare-fun P11 () Bool)
(declare-fun P12 () Bool)
(declare-fun P13 () Bool)
(declare-fun P14 () Bool)
(declare-fun P15 () Bool)
(declare-fun P16 () Bool)
(declare-fun P17 () Bool)
(declare-fun P18 () Bool)
(declare-fun P19 () Bool)
(declare-fun P20 () Bool)
(declare-fun P21 () Bool)
(declare-fun P22 () Bool)
(declare-fun P23 () Bool)
(declare-fun P24 () Bool)
(declare-fun P25 () Bool)
(declare-fun P26 () Bool)
(declare-fun P27 () Bool)
(declare-fun P28 () Bool)
(declare-fun P29 () Bool)
(assert (let ((?v_115 (<= (- (- (* 12 x21) (* 26 x26)) (* 3 x8)) 2)) (?v_47 (* 38 x15))) (let ((?v_99 (<= (- (+ ?v_47 (* 13 x24)) (* 18 x10)) 12)) (?v_14 (* 35 x19)) (?v_57 (< (+ (- (* 6 x22) (* 17 x18)) (* 3 x6)) 15)) (?v_12 (distinct x3 (f0_2 x16 x21))) (?v_54 (= (f0_2 x5 x10) x26)) (?v_132 (= (f0_2 x23 x21) x29)) (?v_108 (= x1 (f0_2 x27 x20))) (?v_69 (distinct (f0_1 x29) (f0_2 x10 x15))) (?v_0 (f0_1 x28))) (let ((?v_1 (distinct ?v_0 (f0_1 x18))) (?v_41 (= (f0_1 x9) (f0_1 x24))) (?v_152 (distinct (f0_2 x28 x20) x20)) (?v_114 (distinct (f0_2 x4 x23) x1)) (?v_80 (= (f0_1 x15) (f0_1 x4))) (?v_62 (= (f0_2 x21 x18) x17)) (?v_9 (f0_1 x26))) (let ((?v_112 (distinct ?v_9 x27)) (?v_45 (= (f0_2 x27 x14) x9)) (?v_60 (distinct (f0_2 x28 x10) x1)) (?v_55 (= x2 x25)) (?v_6 (distinct (f0_2 x16 x17) (f0_2 x17 x15))) (?v_116 (= x14 ?v_9)) (?v_35 (= (f0_2 x19 x6) x11)) (?v_21 (distinct (f0_2 x9 x14) x25)) (?v_86 (distinct (f0_2 x11 x2) x13)) (?v_96 (= x11 x27)) (?v_118 (distinct (f0_2 x22 x24) x24)) (?v_107 (distinct (f0_1 x1) (f0_1 x27))) (?v_100 (distinct (f0_1 x0) x23)) (?v_64 (= (f0_1 x25) ?v_9)) (?v_129 (= (f0_2 x8 x8) (f0_2 x14 x0))) (?v_30 (distinct (f0_2 x6 x25) (f0_1 x14))) (?v_25 (distinct (f0_2 x27 x6) x15)) (?v_31 (distinct (f0_1 x2) ?v_0)) (?v_51 (distinct (f0_1 x3) ?v_0))) (let ((?v_11 (not ?v_129)) (?v_2 (not ?v_118)) (?v_106 (not ?v_45)) (?v_18 (not ?v_6)) (?v_8 (not P10)) (?v_61 (not ?v_1)) (?v_125 (not P17)) (?v_4 (not P23)) (?v_50 (not P26)) (?v_5 (not ?v_51)) (?v_82 (not ?v_57)) (?v_42 (not P2)) (?v_140 (not P11)) (?v_7 (not P5)) (?v_123 (not ?v_132)) (?v_109 (not P13)) (?v_32 (not P29)) (?v_17 (not ?v_107)) (?v_16 (not ?v_21)) (?v_91 (not P1)) (?v_58 (not P7)) (?v_33 (not ?v_114)) (?v_23 (not ?v_116)) (?v_26 (not ?v_30)) (?v_28 (not P6)) (?v_53 (not ?v_25)) (?v_122 (not P9)) (?v_119 (not P24)) (?v_56 (not ?v_80)) (?v_43 (not ?v_115)) (?v_124 (not ?v_41)) (?v_66 (not P15)) (?v_27 (not P18)) (?v_63 (not P19)) (?v_75 (not ?v_31)) (?v_87 (not P12)) (?v_92 (not P3)) (?v_44 (not P27)) (?v_145 (not ?v_152)) (?v_52 (not ?v_69)) (?v_111 (not P22)) (?v_110 (not ?v_54)) (?v_77 (not ?v_99)) (?v_74 (not ?v_35)) (?v_117 (not ?v_55)) (?v_59 (not P20)) (?v_71 (not P4)) (?v_67 (not ?v_86)) (?v_84 (not ?v_62)) (?v_97 (not ?v_12)) (?v_95 (not P14)) (?v_128 (not P25)) (?v_105 (not ?v_96)) (?v_146 (not P16)) (?v_134 (not ?v_108)) (?v_149 (not ?v_100)) (?v_113 (not P8)) (?v_133 (not P21)) (?v_127 (not ?v_64)) (?v_143 (not P28)) (?v_151 (not ?v_60)) (?v_148 (not P0)) (?v_88 (< (+ (* 13 x1) (* 28 x19) (* 41 x22)) 0))) (let ((?v_29 (not ?v_88)) (?v_72 (< (+ (* 10 x7) (* 27 x20) (* 28 x16)) 31))) (let ((?v_81 (not ?v_72)) (?v_136 (<= (+ (* 29 x27) (* 32 x23) (* 22 x13)) 10))) (let ((?v_89 (not ?v_136)) (?v_15 (<= (+ (- (* (- 42) x28) (* 41 x19)) (* 25 x22)) 8)) (?v_49 (<= (- (+ (* (- 9) x2) (* 20 x21)) (* 19 x8)) (- 40))) (?v_90 (distinct (- (- 0 (* 8 x18)) (* 33 x2)) (- 14)))) (let ((?v_19 (not ?v_90)) (?v_3 (<= (- (- (* (- 11) x8) (* 12 x25)) (* 32 x19)) (- 28)))) (let ((?v_13 (not ?v_3)) (?v_36 (<= (+ (* 16 x23) ?v_14) (- 44))) (?v_10 (<= (- (+ (* (- 19) x21) (* 12 x11)) (* 7 x3)) (- 7)))) (let ((?v_39 (not ?v_10)) (?v_24 (<= (- (+ (* (- 10) x1) (* 12 x9)) (* 18 x8)) 41))) (let ((?v_78 (not ?v_24)) (?v_34 (distinct (+ ?v_14 (* 13 x21) (* 35 x14)) (- 2))) (?v_131 (<= (- (+ (* (- 2) x24) (* 12 x27)) (* 39 x19)) 37))) (let ((?v_46 (not ?v_131)) (?v_22 (not ?v_15)) (?v_20 (distinct (- (+ (* (- 32) x8) (* 4 x9)) (* 32 x15)) 36)) (?v_40 (<= (+ (- (* (- 13) x18) (* 19 x9)) (* 30 x15)) 21))) (let ((?v_38 (not ?v_40)) (?v_141 (<= (+ (* (- 16) x4) (* 20 x17) (* 14 x19)) (- 30))) (?v_73 (not ?v_20)) (?v_83 (distinct (- (- (* (- 15) x6) (* 7 x13)) (* 37 x6)) (- 8)))) (let ((?v_65 (not ?v_83)) (?v_93 (< (- (+ (* 14 x5) (* 34 x10)) ?v_47) (- 28)))) (let ((?v_85 (not ?v_93)) (?v_68 (< (+ (* (- 13) x1) (* 24 x29) (* 3 x2)) (- 16)))) (let ((?v_37 (not ?v_68)) (?v_76 (not ?v_36)) (?v_104 (< (+ (* 32 x2) (* 26 x10) (* 41 x29)) (- 6)))) (let ((?v_120 (not ?v_104)) (?v_98 (< (+ (- (* (- 31) x0) (* 25 x5)) (* 3 x1)) 23)) (?v_48 (< (- (+ (* 39 x22) (* 30 x2)) (* 27 x15)) (- 20)))) (let ((?v_102 (not ?v_48)) (?v_79 (distinct (- (+ (* (- 35) x9) (* 35 x13)) (* 15 x28)) 26)) (?v_137 (< (- (- (* 40 x21) (* 25 x2)) (* 22 x22)) (- 28)))) (let ((?v_135 (not ?v_137)) (?v_142 (not ?v_34)) (?v_70 (= (+ (* (- 16) x3) (* 9 x23) (* 20 x25)) (- 18))) (?v_139 (<= (- (- (* (- 28) x16) (* 19 x19)) (* 21 x21)) (- 13))) (?v_103 (< (- (- (* (- 26) x0) (* 2 x22)) (* 41 x27)) 38))) (let ((?v_144 (not ?v_103)) (?v_126 (not ?v_70)) (?v_94 (< (+ (* 36 x11) (* 25 x9)) (- 24)))) (let ((?v_101 (not ?v_94)) (?v_147 (not ?v_79)) (?v_121 (not ?v_98)) (?v_138 (not ?v_49)) (?v_130 (or ?v_62 ?v_102)) (?v_150 (not ?v_141)) (?v_153 (or ?v_50 ?v_131))) (and (and (and (and (and (and (and (and (and (and (and (and (and (and (and (and (and (and (and (and (and (and (and (and (and (and (and (and (and (and (and (and (and (and (and (and (and (and (and (and (and (and (and (and (and (and (and (and (and (and (and (and (and (and (and (and (and (and (and (and (and (and (and (and (and (and (and (and (and (and (and (and (and (and (and (and (and (and (and (and (and (and (and (and (and (and (and (and (and (and (and (and (and (and (and (and (and (and (and (and (and (and (and (and (and (and (and (and (and (and (and (and (and (and (and (and (and (and (and (and (and (and (and (and (and (and (and (and (and (and (and (and (and (and (and (and (and (and (and (and (and (and (and (and (and (and (and (and (and (and (and (and (and (and (and (and (and (and (and (and (and (and (and (and (and (and (and (and (and (and (and (and (and (and (and (and (and (and (and (and (and (and (and (and (and (and (and (and (and (and (and (and (and (and (and (and (and (and (and (and (and (and (and (and (and (and (and (and (and (and (and (and (and (and (and (and (and (and (and (and (and (and (and (and (and (and (and (and (and (and (and (and (and (and (and (and (and (and (and (and (and (and (and (and (and (and (and (and (and (and (and (and (and (and (and (and (and (and (and (and (and (and (and (and (and (and (and (and (and (and (and (and (and (and (and (and (and (and (and (and (and (and (and (and (and (and (and (and (and (and (and (and (and (and (and (and (and (and (and (and (and (and (and (and (and (and (and (and (and (and (and (and (and (and (and (and (and (and (and (and (and (and (and (and (and (and (and (and (and (and (and (and (and (and (and (and (and (and (and (and (and (and (and (and (and (and (and (and (and (and (and (and (and (and (and (and (and (and (and (and (and (and (and (and (and (and (and (and (and (and (and (and (and (and (and (and (and (and (and (and (and (and (and (and (and (and (and (and (and (and (and (and (and (and (and (and (and (and (and (and (and (and (and (and (and (and (and (and (and (and (and (and (and (and (and (and (and (and (and (and (and (and (and (and (and (and (and (and (and (and (and (and (and (and (and (and (and (and (and (and (and (and (and (and (and (and (and (and (and (or (or ?v_11 ?v_2) ?v_106) (or (or ?v_18 ?v_31) P27)) (or (or ?v_1 ?v_8) ?v_64)) (or (or ?v_61 ?v_125) ?v_15)) (or (or ?v_4 ?v_50) ?v_2)) (or (or ?v_5 ?v_82) ?v_49)) (or (or ?v_42 ?v_140) ?v_7)) (or (or ?v_1 ?v_123) ?v_19)) (or (or ?v_13 ?v_3) ?v_108)) (or (or ?v_109 ?v_32) ?v_4)) (or (or ?v_17 ?v_16) P13)) (or (or P12 ?v_36) ?v_91)) (or (or P10 ?v_5) ?v_58)) (or (or P18 ?v_6) ?v_12)) (or (or ?v_7 ?v_29) ?v_33)) (or (or P3 ?v_10) ?v_8)) (or (or ?v_23 ?v_39) ?v_78)) (or (or ?v_11 ?v_12) ?v_62)) (or (or ?v_13 ?v_34) ?v_26)) (or (or ?v_46 ?v_28) ?v_22)) (or (or ?v_16 ?v_17) ?v_35)) (or (or ?v_18 ?v_53) P28)) (or (or ?v_122 ?v_119) P18)) (or (or ?v_56 ?v_43) ?v_124)) (or (or ?v_66 ?v_19) ?v_20)) (or (or ?v_38 ?v_141) ?v_2)) (or (or P11 P21) ?v_1)) (or (or ?v_73 ?v_100) ?v_21)) (or (or ?v_6 ?v_65) ?v_22)) (or (or ?v_72 ?v_23) ?v_85)) (or (or ?v_24 ?v_10) ?v_25)) (or (or ?v_6 ?v_37) ?v_2)) (or (or P7 ?v_8) ?v_26)) (or (or ?v_27 ?v_27) ?v_28)) (or (or ?v_29 ?v_63) ?v_30)) (or (or ?v_75 ?v_87) ?v_10)) (or (or ?v_32 ?v_23) ?v_92)) (or (or ?v_33 ?v_7) ?v_32)) (or (or ?v_34 ?v_35) ?v_21)) (or (or ?v_44 ?v_1) ?v_145)) (or (or ?v_76 ?v_17) ?v_37)) (or (or ?v_55 P13) ?v_34)) (or (or ?v_5 ?v_8) ?v_60)) (or (or ?v_38 ?v_17) ?v_39)) (or (or ?v_27 P4) ?v_120)) (or (or ?v_40 ?v_52) P10)) (or (or ?v_41 P16) ?v_42)) (or (or ?v_43 ?v_44) ?v_45)) (or (or ?v_16 P9) ?v_43)) (or (or ?v_111 ?v_33) ?v_98)) (or (or ?v_40 ?v_46) ?v_22)) (or (or ?v_110 ?v_39) ?v_48)) (or (or ?v_28 P14) ?v_77)) (or (or ?v_102 ?v_74) ?v_49)) (or (or ?v_50 ?v_22) ?v_51)) (or (or ?v_5 ?v_52) ?v_40)) (or (or ?v_53 ?v_50) ?v_33)) (or (or ?v_54 ?v_117) ?v_79)) (or (or ?v_56 ?v_24) ?v_8)) (or (or ?v_11 ?v_57) ?v_58)) (or (or P21 ?v_135) ?v_28)) (or (or ?v_59 ?v_71) ?v_29)) (or (or ?v_59 ?v_60) ?v_61)) (or (or ?v_62 ?v_63) ?v_142)) (or (or ?v_64 ?v_67) ?v_65)) (or (or ?v_31 ?v_6) ?v_70)) (or (or ?v_66 ?v_67) ?v_68)) (or (or ?v_8 ?v_67) ?v_139)) (or (or ?v_144 ?v_38) ?v_69)) (or (or P14 ?v_46) ?v_126)) (or (or ?v_70 ?v_63) P6)) (or (or ?v_42 ?v_54) ?v_71)) (or (or ?v_81 ?v_73) ?v_74)) (or (or ?v_75 ?v_66) ?v_41)) (or (or P9 ?v_25) ?v_21)) (or (or ?v_36 ?v_101) ?v_84)) (or (or P29 ?v_65) ?v_89)) (or (or ?v_71 ?v_75) ?v_72)) (or (or P17 P21) ?v_97)) (or (or ?v_76 P7) P20)) (or (or ?v_77 ?v_26) ?v_49)) (or (or ?v_37 ?v_77) ?v_78)) (or (or ?v_147 ?v_80) ?v_81)) (or (or P6 ?v_53) P16)) (or (or ?v_24 ?v_82) ?v_83)) (or (or ?v_27 ?v_31) ?v_25)) (or (or ?v_84 P22) ?v_19)) (or (or ?v_85 ?v_43) P5)) (or (or P19 ?v_78) ?v_40)) (or (or ?v_86 ?v_13) ?v_83)) (or (or ?v_52 ?v_87) ?v_95)) (or (or P5 P25) ?v_15)) (or (or ?v_88 P7) ?v_89)) (or (or ?v_128 ?v_90) ?v_31)) (or (or ?v_62 P5) ?v_25)) (or (or ?v_5 ?v_105) ?v_91)) (or (or ?v_51 ?v_92) ?v_34)) (or (or ?v_78 ?v_65) ?v_91)) (or (or ?v_33 P7) ?v_43)) (or (or ?v_93 ?v_94) ?v_95)) (or (or P13 ?v_92) ?v_10)) (or (or ?v_23 P25) ?v_50)) (or (or ?v_40 ?v_70) ?v_84)) (or (or ?v_75 ?v_51) ?v_79)) (or (or ?v_96 ?v_97) ?v_73)) (or (or ?v_82 P21) ?v_46)) (or (or ?v_98 ?v_77) P19)) (or (or P13 ?v_60) ?v_99)) (or (or ?v_100 ?v_28) ?v_54)) (or (or P11 P18) ?v_7)) (or (or P28 ?v_101) ?v_146)) (or (or ?v_26 ?v_43) ?v_18)) (or (or ?v_72 ?v_121) ?v_70)) (or (or ?v_51 ?v_72) ?v_102)) (or (or ?v_33 ?v_27) ?v_60)) (or (or ?v_29 ?v_103) ?v_16)) (or (or ?v_24 ?v_138) ?v_4)) (or (or ?v_112 P28) ?v_39)) (or (or ?v_104 P27) ?v_8)) (or (or ?v_85 ?v_105) ?v_106)) (or (or ?v_107 P2) ?v_45)) (or (or ?v_66 ?v_65) ?v_34)) (or (or P16 ?v_134) ?v_63)) (or (or ?v_109 P9) ?v_59)) (or (or ?v_87 ?v_29) ?v_74)) (or (or P6 ?v_70) ?v_39)) (or (or ?v_56 ?v_102) ?v_34)) (or (or ?v_107 P28) ?v_12)) (or (or ?v_15 P28) ?v_5)) (or (or ?v_68 ?v_88) P13)) (or (or P29 ?v_149) ?v_64)) (or (or ?v_97 P6) ?v_110)) (or (or ?v_10 ?v_45) P1)) (or (or ?v_111 ?v_100) ?v_10)) (or (or P29 ?v_112) ?v_113)) (or (or ?v_24 ?v_133) ?v_113)) (or (or ?v_74 ?v_114) ?v_113)) (or (or ?v_109 ?v_46) ?v_86)) (or (or ?v_62 ?v_115) ?v_18)) (or (or ?v_16 ?v_113) ?v_70)) (or (or ?v_116 ?v_105) ?v_53)) (or (or ?v_22 ?v_27) ?v_32)) (or (or ?v_117 P20) P2)) (or (or ?v_23 P1) ?v_59)) (or (or ?v_118 ?v_99) ?v_43)) (or (or ?v_41 ?v_112) ?v_85)) (or (or ?v_87 ?v_119) ?v_52)) (or (or ?v_84 P17) ?v_95)) (or (or ?v_31 P1) ?v_12)) (or (or ?v_55 ?v_64) ?v_100)) (or (or ?v_62 ?v_51) P4)) (or (or P15 ?v_10) P8)) (or ?v_130 P21)) (or (or ?v_120 ?v_82) ?v_41)) (or (or ?v_121 ?v_46) ?v_122)) (or (or ?v_6 ?v_123) ?v_54)) (or (or ?v_28 ?v_124) P15)) (or (or ?v_16 ?v_58) ?v_59)) (or (or P9 ?v_91) ?v_125)) (or (or ?v_39 ?v_126) ?v_127)) (or (or ?v_127 P3) ?v_31)) (or (or ?v_36 ?v_128) ?v_119)) (or (or ?v_59 ?v_26) ?v_116)) (or (or ?v_54 P5) ?v_6)) (or (or ?v_79 ?v_35) ?v_129)) (or (or ?v_7 ?v_49) ?v_53)) (or (or ?v_65 ?v_38) P27)) (or ?v_130 ?v_57)) (or (or (not ?v_112) ?v_90) P20)) (or (or ?v_131 ?v_116) ?v_90)) (or (or ?v_132 P3) ?v_106)) (or (or ?v_115 ?v_101) ?v_108)) (or (or ?v_7 ?v_133) P14)) (or (or ?v_42 ?v_16) ?v_102)) (or (or ?v_51 P19) ?v_88)) (or (or ?v_134 ?v_109) P14)) (or (or P11 ?v_85) ?v_22)) (or (or ?v_53 ?v_49) ?v_135)) (or (or ?v_4 P14) ?v_30)) (or (or P17 ?v_136) ?v_61)) (or (or ?v_65 ?v_71) ?v_105)) (or (or ?v_42 P7) ?v_85)) (or (or ?v_113 ?v_29) ?v_106)) (or (or ?v_143 ?v_122) ?v_129)) (or (or ?v_57 ?v_56) P2)) (or (or ?v_63 ?v_32) ?v_107)) (or (or ?v_32 ?v_94) ?v_131)) (or (or ?v_79 ?v_134) ?v_122)) (or (or ?v_99 ?v_58) P20)) (or (or P17 ?v_70) ?v_3)) (or (or P5 ?v_52) ?v_31)) (or (or ?v_39 ?v_93) P4)) (or (or P7 ?v_107) ?v_116)) (or (or ?v_100 ?v_137) ?v_117)) (or (or ?v_107 ?v_3) P24)) (or (or ?v_27 ?v_5) ?v_131)) (or (or ?v_129 ?v_58) P13)) (or (or ?v_82 ?v_49) ?v_137)) (or (or ?v_73 ?v_68) ?v_89)) (or (or P7 P24) ?v_69)) (or (or ?v_42 ?v_19) ?v_72)) (or (or ?v_42 ?v_32) ?v_55)) (or (or ?v_19 ?v_85) ?v_39)) (or (or ?v_67 ?v_106) ?v_91)) (or (or ?v_56 P28) ?v_65)) (or (or ?v_90 ?v_4) ?v_52)) (or (or ?v_137 ?v_115) P29)) (or (or ?v_49 ?v_133) ?v_65)) (or (or ?v_107 ?v_30) ?v_62)) (or (or ?v_81 ?v_90) ?v_138)) (or (or P1 ?v_128) ?v_8)) (or (or ?v_102 ?v_84) ?v_67)) (or (or P4 ?v_151) ?v_95)) (or (or ?v_117 ?v_85) ?v_7)) (or (or P17 ?v_119) P26)) (or (or ?v_101 ?v_6) P4)) (or (or ?v_127 ?v_96) ?v_57)) (or (or P9 ?v_3) ?v_148)) (or (or ?v_106 ?v_139) ?v_140)) (or (or ?v_11 P16) ?v_141)) (or (or ?v_42 ?v_49) ?v_142)) (or (or ?v_102 ?v_131) ?v_58)) (or (or ?v_80 P6) ?v_143)) (or (or P22 P14) ?v_121)) (or (or ?v_132 P1) ?v_90)) (or (or ?v_106 ?v_38) ?v_33)) (or (or ?v_92 ?v_126) P8)) (or (or ?v_30 ?v_16) ?v_122)) (or (or P2 ?v_122) ?v_10)) (or (or ?v_64 ?v_109) ?v_56)) (or (or ?v_5 P12) ?v_101)) (or (or ?v_150 ?v_46) ?v_23)) (or (or ?v_117 ?v_24) ?v_97)) (or (or ?v_105 P2) ?v_144)) (or (or ?v_101 ?v_102) ?v_62)) (or (or P21 ?v_22) P14)) (or (or P10 ?v_70) ?v_52)) (or (or ?v_140 ?v_145) P3)) (or (or ?v_75 ?v_49) ?v_5)) (or (or P20 ?v_91) ?v_54)) (or (or ?v_134 ?v_110) ?v_106)) (or (or ?v_146 P17) ?v_59)) (or (or P5 ?v_101) ?v_73)) (or (or ?v_75 ?v_126) ?v_46)) (or (or ?v_134 ?v_86) ?v_21)) (or (or ?v_18 ?v_28) ?v_51)) (or (or ?v_90 ?v_42) ?v_115)) (or (or P29 ?v_136) ?v_1)) (or (or ?v_83 ?v_107) P16)) (or (or ?v_10 ?v_18) ?v_110)) (or (or P27 P4) ?v_12)) (or (or P3 ?v_54) ?v_60)) (or (or P20 ?v_81) ?v_88)) (or (or ?v_125 P1) ?v_144)) (or (or ?v_111 ?v_135) ?v_110)) (or (or ?v_29 ?v_96) ?v_57)) (or (or ?v_85 ?v_81) ?v_16)) (or (or ?v_81 ?v_40) ?v_35)) (or (or ?v_137 ?v_43) ?v_61)) (or (or ?v_91 ?v_112) ?v_104)) (or (or ?v_108 ?v_93) ?v_22)) (or (or P27 ?v_79) ?v_29)) (or (or ?v_125 ?v_147) ?v_73)) (or (or P26 ?v_111) P13)) (or (or P24 ?v_1) ?v_20)) (or (or P25 ?v_56) ?v_113)) (or (or ?v_148 P6) ?v_101)) (or (or ?v_74 ?v_87) ?v_127)) (or (or P11 ?v_137) ?v_146)) (or ?v_153 ?v_84)) (or (or ?v_126 ?v_75) ?v_90)) (or (or ?v_146 ?v_112) ?v_70)) (or (or P28 ?v_118) ?v_13)) (or (or P16 ?v_108) ?v_62)) (or (or ?v_60 ?v_114) ?v_103)) (or (or ?v_2 ?v_19) P15)) (or (or P21 ?v_98) ?v_119)) (or (or ?v_135 ?v_35) ?v_136)) (or (or ?v_24 P26) ?v_34)) (or (or ?v_128 ?v_25) ?v_114)) (or (or ?v_120 ?v_20) ?v_113)) (or (or P0 ?v_82) P28)) (or (or ?v_4 ?v_108) ?v_102)) (or (or ?v_81 P18) ?v_61)) (or (or ?v_111 ?v_39) P12)) (or (or ?v_65 ?v_98) ?v_107)) (or (or ?v_87 ?v_67) ?v_121)) (or (or ?v_149 ?v_61) ?v_72)) (or (or P24 ?v_117) ?v_73)) (or (or ?v_62 P15) ?v_150)) (or (or ?v_124 P15) ?v_37)) (or (or P13 ?v_151) ?v_140)) (or (or ?v_115 ?v_113) P13)) (or (or ?v_146 ?v_102) ?v_145)) (or (or ?v_95 ?v_27) ?v_63)) (or (or ?v_85 ?v_67) ?v_33)) (or (or P26 ?v_117) ?v_109)) (or (or ?v_105 ?v_43) ?v_137)) (or (or ?v_129 ?v_56) ?v_85)) (or (or ?v_70 ?v_116) ?v_145)) (or (or ?v_3 ?v_46) P21)) (or (or ?v_119 ?v_69) ?v_46)) (or (or ?v_10 ?v_25) ?v_56)) (or (or ?v_3 ?v_71) ?v_43)) (or (or ?v_120 ?v_36) ?v_98)) (or (or ?v_134 ?v_152) ?v_7)) (or (or ?v_114 ?v_89) ?v_20)) (or (or ?v_91 ?v_79) ?v_34)) (or (or P10 ?v_33) ?v_28)) (or (or ?v_86 ?v_45) P29)) (or (or P20 ?v_45) ?v_104)) (or (or ?v_4 ?v_112) ?v_109)) (or (or ?v_110 ?v_26) ?v_124)) (or (or P8 P1) ?v_19)) (or (or ?v_88 ?v_28) ?v_63)) (or (or P9 ?v_108) ?v_55)) (or (or P1 P11) ?v_38)) (or (or P4 ?v_10) ?v_105)) (or (or P12 ?v_78) ?v_42)) (or (or ?v_23 P17) ?v_74)) (or (or ?v_72 ?v_16) ?v_83)) (or (or ?v_136 ?v_36) ?v_146)) (or (or ?v_148 ?v_141) ?v_48)) (or (or ?v_71 ?v_24) ?v_8)) (or (or ?v_65 P8) P23)) (or (or P15 P15) ?v_22)) (or (or ?v_52 ?v_127) ?v_29)) (or (or P7 P1) ?v_111)) (or (or ?v_108 ?v_117) P27)) (or (or P25 ?v_87) ?v_76)) (or (or ?v_120 ?v_49) ?v_72)) (or (or ?v_2 ?v_113) ?v_94)) (or (or ?v_61 P16) ?v_83)) (or (or ?v_108 ?v_128) P26)) (or (or ?v_133 ?v_20) ?v_30)) (or (or P2 ?v_57) ?v_75)) (or (or ?v_28 ?v_101) ?v_78)) (or (or ?v_148 P7) ?v_21)) (or (or P19 ?v_17) ?v_82)) (or (or ?v_101 P9) ?v_95)) (or (or ?v_48 ?v_109) ?v_149)) (or (or ?v_83 P16) ?v_77)) (or (or ?v_115 ?v_106) ?v_35)) (or (or ?v_146 ?v_137) ?v_11)) (or (or ?v_57 ?v_72) ?v_89)) (or (or ?v_144 ?v_29) P24)) (or (or P1 ?v_147) ?v_124)) (or (or ?v_17 ?v_44) ?v_7)) (or (or ?v_20 ?v_1) ?v_58)) (or (or ?v_60 ?v_127) ?v_58)) (or (or ?v_80 ?v_71) ?v_19)) (or (or ?v_39 ?v_97) ?v_110)) (or (or P18 ?v_72) ?v_129)) (or (or ?v_116 ?v_131) ?v_84)) (or (or ?v_65 ?v_117) ?v_31)) (or (or ?v_101 ?v_124) P5)) (or (or ?v_111 ?v_109) ?v_124)) (or (or ?v_136 P26) ?v_91)) (or (or ?v_22 P8) ?v_94)) (or (or ?v_123 ?v_80) ?v_52)) (or (or ?v_28 ?v_96) P1)) (or (or ?v_100 ?v_85) P6)) (or (or ?v_67 ?v_77) ?v_56)) (or ?v_153 ?v_148)) (or (or ?v_46 ?v_48) P19)) (or (or ?v_25 ?v_38) ?v_142)) (or (or ?v_53 ?v_113) ?v_110)) (or (or P9 ?v_128) ?v_80)) (or (or ?v_104 P19) ?v_134)) (or (or ?v_34 ?v_32) P12)) (or (or ?v_73 ?v_88) P27)) (or (or ?v_115 ?v_68) P7)) (or (or ?v_4 ?v_87) ?v_39)) (or (or ?v_107 P20) ?v_110)) (or (or ?v_123 ?v_117) P2)) (or (or (not ?v_139) P1) P18)) (or (or ?v_99 ?v_13) ?v_144)) (or (or ?v_41 ?v_57) P29)) (or (or ?v_110 ?v_84) ?v_99)) (or (or ?v_94 ?v_27) P20)) (or (or ?v_58 P19) ?v_102)) (or (or ?v_10 P4) ?v_86)) (or (or ?v_45 ?v_12) P23)) (or (or P10 P20) ?v_61)) (or (or ?v_13 ?v_117) P18)) (or (or ?v_102 ?v_34) P13)) (or (or ?v_30 ?v_123) ?v_63)) (or (or ?v_44 ?v_150) ?v_76)) (or (or ?v_26 ?v_59) ?v_151)) (or (or ?v_124 ?v_91) ?v_36)) (or (or ?v_7 ?v_66) ?v_89)) (or (or P12 ?v_102) ?v_86)) (or (or ?v_83 ?v_143) ?v_59)) (or (or P2 ?v_100) P9)) (or (or ?v_124 ?v_7) ?v_5)) (or (or ?v_123 ?v_16) ?v_114)) (or (or ?v_5 ?v_59) ?v_101)) (or (or P20 ?v_12) ?v_73)) (or (or ?v_7 P28) ?v_118)) (or (or P24 ?v_125) ?v_2)) (or (or ?v_88 ?v_75) ?v_41)) (or (or ?v_85 P22) ?v_126)) (or (or ?v_133 ?v_114) ?v_113)) (or (or ?v_120 P13) ?v_33)) (or (or ?v_31 ?v_125) ?v_90)) (or (or P20 ?v_44) ?v_19)) (or (or ?v_116 P3) ?v_140)) (or (or ?v_105 ?v_136) ?v_49)) (or (or ?v_75 ?v_95) ?v_41)) (or (or ?v_45 ?v_106) ?v_53)) (or (or P5 ?v_63) ?v_21)) (or (or ?v_88 P5) ?v_111)) (or (or ?v_66 ?v_12) ?v_103)) (or (or ?v_75 ?v_114) ?v_95)) (or (or ?v_38 P29) ?v_99)) (or (or ?v_25 ?v_64) ?v_7)) (or (or ?v_96 ?v_37) ?v_39)) (or (or ?v_39 ?v_60) ?v_77)) (or (or ?v_105 P19) ?v_3)) (or (or ?v_25 ?v_73) P6)) (or (or ?v_114 ?v_54) ?v_77)) (or (or ?v_87 ?v_98) ?v_63)) (or (or ?v_55 ?v_46) ?v_66)) (or (or ?v_7 P8) P21)) (or (or ?v_17 ?v_53) ?v_1)) (or (or ?v_152 ?v_3) P19)) (or (or ?v_146 ?v_103) ?v_136)) (or (or ?v_5 ?v_138) ?v_25)) (or (or ?v_97 ?v_151) ?v_68)) (or (or ?v_84 ?v_37) ?v_65)) (or (or P0 P16) ?v_30)) (or (or ?v_20 ?v_52) ?v_37)) (or (or P1 P15) P6)) (or (or ?v_111 ?v_53) ?v_56)) (or (or P22 ?v_88) P5)) (or (or ?v_68 ?v_119) ?v_147)) (or (or ?v_149 ?v_106) ?v_28)) (or (or ?v_99 ?v_46) ?v_28)) (or (or ?v_57 ?v_76) ?v_78)) (or (or ?v_58 ?v_63) ?v_49)) (or (or ?v_143 ?v_116) P24)) (or (or ?v_123 P2) ?v_142)) (or (or ?v_70 ?v_20) P13)) (or (or ?v_107 ?v_23) ?v_109)) (or (or ?v_117 ?v_124) P14)) (or (or P11 P23) ?v_99)) (or (or ?v_66 ?v_42) P13)) (or (or ?v_147 ?v_85) ?v_17)) (or (or ?v_143 ?v_23) ?v_100)) (or (or P27 ?v_25) ?v_128)))))))))))))))))))))))))
(check-sat)
(exit)
